Gurobi 12.0.0:   lim:time = 14400
  mip:bestbound = 1
Set parameter LogToConsole to value 1
  tech:outlev = 1
Set parameter InfUnbdInfo to value 1
Gurobi Optimizer version 12.0.0 build v12.0.0rc1 (win64 - Windows 11.0 (26100.2))

CPU model: 11th Gen Intel(R) Core(TM) i7-11700 @ 2.50GHz, instruction set [SSE2|AVX|AVX2|AVX512]
Thread count: 8 physical cores, 16 logical processors, using up to 16 threads

Non-default parameters:
TimeLimit  14400
InfUnbdInfo  1

Optimize a model with 253 rows, 222 columns and 1234 nonzeros
Model fingerprint: 0xef3906fa
Model has 3 quadratic constraints
Variable types: 21 continuous, 201 integer (0 binary)
Coefficient statistics:
  Matrix range     [1e+00, 1e+05]
  QMatrix range    [1e+00, 1e+00]
  QLMatrix range   [4e+00, 2e+01]
  Objective range  [4e+00, 9e+01]
  Bounds range     [1e+00, 1e+02]
  RHS range        [1e+00, 1e+05]
  QRHS range       [1e+02, 1e+02]
Presolve removed 23 rows and 20 columns
Presolve time: 0.01s
Presolved: 350 rows, 280 columns, 1712 nonzeros
Variable types: 14 continuous, 266 integer (266 binary)
Found heuristic solution: objective 476.1700000

Root relaxation: objective 1.987539e+02, 39 iterations, 0.00 seconds (0.00 work units)

    Nodes    |    Current Node    |     Objective Bounds      |     Work
 Expl Unexpl |  Obj  Depth IntInf | Incumbent    BestBd   Gap | It/Node Time

     0     0  198.75391    0   13  476.17000  198.75391  58.3%     -    0s
H    0     0                     424.6700000  198.75391  53.2%     -    0s
H    0     0                     416.4600000  198.75391  52.3%     -    0s
H    0     0                     342.1100000  198.75391  41.9%     -    0s
     0     0  209.23186    0   15  342.11000  209.23186  38.8%     -    0s
H    0     0                     315.3000000  209.23186  33.6%     -    0s
     0     0  213.60721    0   13  315.30000  213.60721  32.3%     -    0s
     0     0  220.80000    0   12  315.30000  220.80000  30.0%     -    0s
     0     0  220.80000    0   12  315.30000  220.80000  30.0%     -    0s
     0     0  220.80000    0   12  315.30000  220.80000  30.0%     -    0s
     0     0  220.80000    0   12  315.30000  220.80000  30.0%     -    0s
     0     0  220.80000    0   12  315.30000  220.80000  30.0%     -    0s
H    0     2                     314.7800000  220.80000  29.9%     -    0s
     0     2  220.80000    0   12  314.78000  220.80000  29.9%     -    0s
H   36    49                     310.9000000  220.82341  29.0%  12.5    0s
*  364    98              11     304.1000000  234.11500  23.0%   6.6    0s

Cutting planes:
  Learned: 5
  Gomory: 4
  Cover: 5
  Implied bound: 2
  MIR: 5
  GUB cover: 1
  Zero half: 5
  RLT: 13

Explored 911 nodes (5235 simplex iterations) in 0.37 seconds (0.15 work units)
Thread count was 16 (of 16 available processors)

Solution count 8: 304.1 310.9 314.78 ... 476.17

Optimal solution found (tolerance 1.00e-04)
Best objective 3.041000000000e+02, best bound 3.041000000000e+02, gap 0.0000%
-----RESULTS INFO-----
running_time:  0.46799999999999997
TC.best_bound:  304.1
TC:  304.1
MIP Gap (%):  0
=== Vehicle Routes ===
Vehicle 1: 0 → 7
Vehicle 1: 7 → 17
Vehicle 2: 0 → 2
Vehicle 2: 1 → 9
Vehicle 2: 2 → 1
Vehicle 2: 3 → 17
Vehicle 2: 9 → 3
Vehicle 3: 0 → 17

=== Full Vehicle Routes ===
Vehicle 1: 0 → 7 → 0 (24<100)
Vehicle 2: 0 → 2 → 1 → 9 → 3 → 0 (78<100)
Vehicle 3: 0 → 0 (0<100)
Arc used by MRT line: y variables:
Customer assigment to PL: u variables:
4 9
5 9
6 9
Node is served by regular vehicle: g variables:
1
2
3
7
9
Customer assigment to Home delivery: gm variables:
1
2
3
7
Node total demands: ntd variables:
1 4 1
2 8 1
3 16 1
6 0 0
7 24 1
14 0 0
15 0 0
16 0 0
8 0 0
9 50 1
10 0 0
11 0 0
12 0 0
13 0 0
Customer's demand delivered to PL: l variables:
4
5
6
Lockers load <= capacity:
0 <= 97
0 <= 74
0 <= 97
0 <= 76
50 <= 87
0 <= 98
0 <= 82
0 <= 73
0 <= 93
